c example DIMACS-CNF 4-SAT
p cnf 4 17
-1 -2 -3 4 0
1 -2 3 4 0
1 2 -3 -4 0
1 -2 -3 4 0
-1 2 3 -4 0
-1 -2 -3 -4 0
1 -2 -3 4 0
1 2 -3 4 0
1 -2 -3 4 0
-1 -2 3 -4 0
-1 2 3 4 0
1 2 3 4 0
1 2 3 -4 0
-1 2 3 4 0
-1 2 -3 -4 0
1 -2 3 -4 0
-1 -2 3 4 0